#This is a shortened script to test the shape of the notches made quickly
#Devin Adams - 8/23/2016
#################################################################
#################################################################
################################################################


#--------Variables---------------#
variable length equal 500
variable width  equal 300
variable depth  equal 500

#----Read in the restart file GBmin---#
read_restart	${restartname1}

#---Define Left(vasen) and Right(oikea) regions to pull later---#

#Pull from the -x and the x direction (left and right)#
#region		vasen block INF $(v_length*0.02) 0 $(v_width*1) INF $(v_depth*0.5) units box
#region		oikea block $(v_length*0.98) INF 0 $(v_width*1) $(v_depth*0.5) INF units box

#Pull from the top and bottom (-z and z direction)
region		vasen block 0 $(v_length) 0 $(v_width) $(v_depth*0.9) INF units box
region		oikea block 0 $(v_length) 0 $(v_width) INF $(v_depth*0.1) units box


group		oikea region oikea
group		vasen region vasen
group		boundary union vasen oikea
group		mobile subtract all boundary


##--Cut out the long notches on each side---#
	region		leftdelete prism $(-0.05*v_length) $(0.05*v_length) $(-2*v_width)  $(2*v_width) $(v_depth*0.5) $(v_depth*0.55) 0 $(-0.1*v_width) 0 units box
	region		rightdelete prism $(0.95*v_length) $(1.05*v_length) $(-2*v_width)  $(2*v_width) $(v_depth*0.5) $(v_depth*0.55) 0 $(0.1*v_width) 0 units box
	region		leftdeletebot prism $(-0.1*v_length) $(0.00*v_length)  $(-2*v_width)  $(2*v_width) $(v_depth*0.45) $(v_depth*0.5) 0 $(0.1*v_width) 0 units box
	region		rightdeletebot prism $(1.0*v_length) $(1.1*v_length)  $(-2*v_width)  $(2*v_width) $(v_depth*0.45) $(v_depth*0.5) 0 $(-0.1*v_width) 0 units box
	
	delete_atoms	region	leftdeletebot
	delete_atoms	region	rightdeletebot
 	delete_atoms	region	leftdelete
	delete_atoms	region	rightdelete

#--------------Create a region of atoms to analyze stress-------#
#region		stress_box1 prism $(0.5*v_length-7.5) $(0.50*v_length-2.5) 0 $(1.0*v_width) 0 $(1.0*v_depth) 0 0 0 units box
#group		stress_box1 region stress_box1
#region		stress_box2 prism $(0.50*v_length+2.5) $(0.50*v_length+7.5) 0 $(1.0*v_width) 0 $(1.0*v_depth) 0 0 0 units box 
#group		stress_box2 region stress_box2
#region		stress_box3 prism $(0.50*v_length-2.5) $(0.50*v_length+2.5) 0 $(1.0*v_width) 0 $(1.0*v_depth) 0 0 0 units box 
#group		stress_box3 region stress_box3



#--------Potentials----------------#
pair_style	eam/alloy
pair_coeff	* * /fslhome/dadams26/potentials/Ta1_Ravelo_2013.eam.alloy Ta Ta
neighbor	0.5 bin
neigh_modify	delay 5 check yes


#--------Define Settings------------#
compute		csd all centro/atom bcc
compute		cna all cna/atom 2.0 #the cutoff is =1.207*a where a=3.304
compute		eng all pe/atom
compute		eatoms all reduce sum c_eng
compute		stresses all stress/atom NULL
compute		new3d mobile temp


thermo 		200
thermo_style	custom step pe lx ly lz press pxx pyy pzz c_eatoms 
dump		2 all cfg 100 ${dumpname2} mass type xs ys zs c_csd c_eng c_cna fx fy fz # c_vor_volume[1] c_vor_volume[2]
dump_modify	2 thresh c_csd > 2.0
#dump		31 stress_box1 cfg 1000 zzdump_Stressbox_Test1_*.out mass type xs ys zs c_csd c_eng c_cna fx fy fz
#dump		32 stress_box2 cfg 1000 zzdump_Stressbox_Test2_*.out mass type xs ys zs c_csd c_eng c_cna fx fy fz
#dump		33 stress_box3 cfg 1000 zzdump_Stressbox_Test3_*.out mass type xs ys zs c_csd c_eng c_cna fx fy fz


min_style	cg
minimize	1e-5 1e-5 2000 2000
undump 		2


#----Print that it's finished----#
print 		"All done with cutting out the notches!"


reset_timestep	0

#######################
# --- Equilibrate --- #
#######################
variable 	alpha equal 1.4489e-10
variable 	tmpx equal "lx"
variable 	tmpy equal "ly"
variable 	tmpz equal "lz"
variable 	L0 equal ${tmpx}
variable 	strainx equal "(lx - v_L0)/v_L0"

variable 	deltax equal $(v_alpha*10*lx)
variable 	deltay equal $(v_alpha*10*ly)
variable 	deltaz equal $(v_alpha*10*lz)

print 		"v_deltax"
print 		"${deltax}"

displace_atoms 	all ramp x 0.0 ${deltax} x 0.0 ${tmpx}	
displace_atoms 	all ramp y 0.0 ${deltay} y 0.0 ${tmpy}
displace_atoms 	all ramp z 0.0 ${deltaz} z 0.0 ${tmpz}

print 		"Run equilibration period"
velocity	all create 20.0 6843235 temp new3d # mom yes rot no
#unfix 1
fix		1 all nvt temp 10.0 10.0 10.0 drag 3000.0  #Try decreasing 34 (Tdamp and Pdamp)

thermo		250
thermo_style 	custom step pe temp lx ly lz press pxx pyy pzz v_strainx
thermo_modify	temp new3d

dump 		13 all custom 1000 ${dumpname2} id type x y z vx c_cna c_csd
dump_modify 	13 thresh c_csd > 2.0

timestep	0.001 	#was 0.001 ps. Several papers run their simulations at 2 fs timesteps (0.002ps)
run		3750

unfix		1
fix		1 all nvt temp 10.0 10.0 10.0 drag 2000.0   #The drag value was 2000 when it was initially working. 
run		2500

unfix		1
fix		1 all nvt temp 10.0 10.0 1.0 drag 0.0
run		1250

## --- Write Restart --- #
write_restart ${restartname2}
print 		"Equilibration is All Done!"

